param set_len = 96;
param target := 696;
set values := 17, 11, 3, 27, 24, 18, 5, 29, 26, 22, 2, 27, 3, 0, 27, 22, 17, 19, 13, 21, 3, 5, 30, 5, 31, 22, 22, 18, 24, 0, 3, 30, 16, 23, 17, 5, 1, 13, 7, 28, 15, 10, 0, 28, 8, 17, 28, 4, 0, 20, 29, 9, 19, 0, 23, 16, 14, 7, 4, 0, 3, 26, 6, 6, 8, 12, 26, 6, 31, 22, 20, 23, 16, 2, 12, 11, 31, 13, 11, 31, 30, 13, 2, 15, 5, 20, 5, 6, 11, 2, 18, 2, 1, 14, 13, 31, ;
